34
[-1, 0, 0, 0, 0, 0, 23, 68, 91, 85, 33, 0, 0, 0, 0, 89, 26, 86, 0, 0, 0, 60, 95, 83, 2, 69, 0, 7, 5, 0, 83, 0, 0, 0, 
0, -1, 72, 10, 14, 56, 0, 0, 40, 0, 92, 0, 47, 0, 99, 74, 32, 82, 16, 90, 0, 87, 66, 58, 19, 11, 51, 25, 0, 36, 23, 5, 96, 0, 
0, 72, -1, 0, 0, 19, 98, 0, 88, 86, 81, 0, 0, 57, 0, 44, 0, 58, 14, 14, 66, 0, 0, 56, 97, 0, 0, 54, 13, 94, 4, 3, 59, 0, 
0, 10, 0, -1, 0, 24, 0, 38, 12, 0, 8, 0, 80, 24, 9, 0, 13, 93, 0, 1, 46, 0, 0, 0, 28, 0, 26, 57, 10, 0, 0, 0, 12, 0, 
0, 14, 0, 0, -1, 0, 0, 27, 0, 65, 0, 0, 0, 0, 69, 0, 0, 31, 0, 79, 32, 0, 0, 0, 0, 46, 67, 21, 0, 68, 0, 77, 95, 83, 
0, 56, 19, 24, 0, -1, 96, 0, 0, 56, 0, 0, 81, 0, 12, 0, 80, 16, 44, 0, 4, 0, 0, 0, 0, 15, 0, 12, 0, 0, 29, 50, 0, 0, 
23, 0, 98, 0, 0, 96, -1, 41, 54, 0, 52, 77, 0, 0, 0, 0, 0, 0, 21, 17, 0, 97, 0, 0, 99, 0, 0, 5, 52, 49, 0, 0, 20, 0, 
68, 0, 0, 38, 27, 0, 41, -1, 67, 0, 0, 0, 92, 0, 0, 18, 0, 37, 88, 96, 33, 0, 71, 0, 66, 0, 17, 0, 0, 0, 0, 0, 63, 0, 
91, 40, 88, 12, 0, 0, 54, 67, -1, 25, 0, 0, 56, 61, 50, 0, 0, 44, 0, 85, 98, 0, 0, 47, 0, 90, 56, 0, 0, 0, 96, 86, 0, 51, 
85, 0, 86, 0, 65, 56, 0, 0, 25, -1, 68, 50, 35, 0, 26, 53, 0, 33, 0, 31, 95, 0, 25, 79, 36, 0, 5, 37, 0, 45, 0, 76, 0, 63, 
33, 92, 81, 8, 0, 0, 52, 0, 0, 68, -1, 69, 0, 0, 98, 0, 0, 41, 72, 56, 71, 0, 0, 0, 0, 0, 0, 73, 0, 12, 0, 96, 36, 0, 
0, 0, 0, 0, 0, 0, 77, 0, 0, 50, 69, -1, 0, 0, 0, 24, 53, 0, 61, 55, 0, 48, 0, 86, 5, 90, 39, 16, 51, 57, 6, 0, 48, 65, 
0, 47, 0, 80, 0, 81, 0, 92, 56, 35, 0, 0, -1, 0, 0, 89, 0, 0, 98, 5, 78, 21, 11, 54, 0, 0, 0, 13, 0, 17, 44, 24, 8, 0, 
0, 0, 57, 24, 0, 0, 0, 0, 61, 0, 0, 0, 0, -1, 35, 3, 0, 0, 42, 0, 0, 0, 0, 0, 0, 0, 13, 0, 98, 0, 35, 54, 0, 86, 
0, 99, 0, 9, 69, 12, 0, 0, 50, 26, 98, 0, 0, 35, -1, 33, 14, 0, 99, 0, 80, 0, 62, 0, 31, 0, 0, 0, 64, 4, 0, 0, 92, 31, 
89, 74, 44, 0, 0, 0, 0, 18, 0, 53, 0, 24, 89, 3, 33, -1, 0, 0, 0, 0, 95, 11, 7, 50, 0, 0, 14, 44, 62, 57, 39, 78, 36, 1, 
26, 32, 0, 13, 0, 80, 0, 0, 0, 0, 0, 53, 0, 0, 14, 0, -1, 0, 82, 35, 13, 60, 0, 0, 67, 72, 57, 24, 80, 64, 71, 39, 0, 0, 
86, 82, 58, 93, 31, 16, 0, 37, 44, 33, 41, 0, 0, 0, 0, 0, 0, -1, 0, 0, 93, 27, 0, 97, 0, 0, 0, 28, 0, 0, 0, 40, 0, 0, 
0, 16, 14, 0, 0, 44, 21, 88, 0, 0, 72, 61, 98, 42, 99, 0, 82, 0, -1, 81, 0, 15, 15, 0, 0, 0, 91, 0, 0, 93, 80, 79, 7, 0, 
0, 90, 14, 1, 79, 0, 17, 96, 85, 31, 56, 55, 5, 0, 0, 0, 35, 0, 81, -1, 0, 28, 30, 57, 0, 0, 0, 0, 0, 96, 0, 0, 74, 8, 
0, 0, 66, 46, 32, 4, 0, 33, 98, 95, 71, 0, 78, 0, 80, 95, 13, 93, 0, 0, -1, 0, 0, 3, 49, 0, 56, 0, 11, 0, 27, 0, 0, 96, 
60, 87, 0, 0, 0, 0, 97, 0, 0, 0, 0, 48, 21, 0, 0, 11, 60, 27, 15, 28, 0, -1, 0, 47, 20, 0, 0, 0, 24, 0, 38, 0, 86, 24, 
95, 66, 0, 0, 0, 0, 0, 71, 0, 25, 0, 0, 11, 0, 62, 7, 0, 0, 15, 30, 0, 0, -1, 0, 0, 85, 0, 10, 0, 52, 0, 85, 32, 0, 
83, 58, 56, 0, 0, 0, 0, 0, 47, 79, 0, 86, 54, 0, 0, 50, 0, 97, 0, 57, 3, 47, 0, -1, 0, 44, 53, 0, 0, 0, 0, 0, 0, 65, 
2, 19, 97, 28, 0, 0, 99, 66, 0, 36, 0, 5, 0, 0, 31, 0, 67, 0, 0, 0, 49, 20, 0, 0, -1, 35, 0, 34, 0, 62, 0, 0, 40, 0, 
69, 11, 0, 0, 46, 15, 0, 0, 90, 0, 0, 90, 0, 0, 0, 0, 72, 0, 0, 0, 0, 0, 85, 44, 35, -1, 62, 71, 0, 0, 43, 0, 0, 0, 
0, 51, 0, 26, 67, 0, 0, 17, 56, 5, 0, 39, 0, 13, 0, 14, 57, 0, 91, 0, 56, 0, 0, 53, 0, 62, -1, 0, 0, 0, 0, 93, 0, 31, 
7, 25, 54, 57, 21, 12, 5, 0, 0, 37, 73, 16, 13, 0, 0, 44, 24, 28, 0, 0, 0, 0, 10, 0, 34, 71, 0, -1, 9, 65, 65, 0, 0, 12, 
5, 0, 13, 10, 0, 0, 52, 0, 0, 0, 0, 51, 0, 98, 64, 62, 80, 0, 0, 0, 11, 24, 0, 0, 0, 0, 0, 9, -1, 0, 0, 0, 76, 0, 
0, 36, 94, 0, 68, 0, 49, 0, 0, 45, 12, 57, 17, 0, 4, 57, 64, 0, 93, 96, 0, 0, 52, 0, 62, 0, 0, 65, 0, -1, 0, 0, 26, 0, 
83, 23, 4, 0, 0, 29, 0, 0, 96, 0, 0, 6, 44, 35, 0, 39, 71, 0, 80, 0, 27, 38, 0, 0, 0, 43, 0, 65, 0, 0, -1, 0, 0, 0, 
0, 5, 3, 0, 77, 50, 0, 0, 86, 76, 96, 0, 24, 54, 0, 78, 39, 40, 79, 0, 0, 0, 85, 0, 0, 0, 93, 0, 0, 0, 0, -1, 0, 34, 
0, 96, 59, 12, 95, 0, 20, 63, 0, 0, 36, 48, 8, 0, 92, 36, 0, 0, 7, 74, 0, 86, 32, 0, 40, 0, 0, 0, 76, 26, 0, 0, -1, 0, 
0, 0, 0, 0, 83, 0, 0, 0, 51, 63, 0, 65, 0, 86, 31, 1, 0, 0, 0, 8, 96, 24, 0, 65, 0, 0, 31, 12, 0, 0, 0, 34, 0, -1]